n_res = 4;
rc = [ 28, 29, 22, 28 ];
n_tasks = 30;
d = [ 6, 8, 2, 6, 1, 7, 9, 1, 5, 3, 6, 1, 8, 5, 4, 3, 7, 7, 1, 1, 4, 2, 8, 4, 7, 5, 9, 3, 1, 9 ];
rr = [| 28, 28, 28, 28, 28, 28, 28, 28, 28, 28, 28, 28, 28, 28, 28, 28, 28, 28, 28, 28, 28, 28, 28, 28, 28, 28, 28, 28, 28, 28
      | 29, 29, 29, 29, 29, 29, 29, 29, 29, 29, 29, 29, 29, 29, 29, 29, 29, 29, 29, 29, 29, 29, 29, 29, 29, 29, 29, 29, 29, 29
      | 22, 22, 22, 22, 22, 22, 22, 22, 22, 22, 22, 22, 22, 22, 22, 22, 22, 22, 22, 22, 22, 22, 22, 22, 22, 22, 22, 22, 22, 22
      | 28, 28, 28, 28, 28, 28, 28, 28, 28, 28, 28, 28, 28, 28, 28, 28, 28, 28, 28, 28, 28, 28, 28, 28, 28, 28, 28, 28, 28, 28|];
suc = [ { 5, 9, 29 },
       { 14, 15 },
       { 4, 6, 11 },
       { 19 },
       { 8, 20 },
       { 7, 10, 15 },
       { 13, 17, 23 },
       { 16, 17, 28 },
       { 12 },
       { 12, 19 },
       { 21 },
       { 24 },
       { 20 },
       { 29 },
       { 18 },
       { 27 },
       { 22 },
       { 20, 22 },
       { 25 },
       { 26 },
       { 25 },
       { 30 },
       { 29 },
       { 25 },
       { 26, 28 },
       { 27 },
       { 30 },
       {  },
       {  },
       {  } ];
